39606.48,32.98,36.32
35529.71,36.76,40.49
38441.01,33.98,37.42
37618.58,34.72,38.24
38708.36,33.75,37.16
32591.98,40.08,44.14
37404.83,34.92,38.46
35477.59,36.82,40.55
36225.68,36.06,39.71
35497.74,36.8,40.52
33975.45,38.45,42.34
39143.89,33.37,36.75
39934.79,32.71,36.02
37566.67,34.77,38.29
34296.77,38.09,41.94
34502.66,37.86,41.69
35810.94,36.48,40.17
35073.69,37.24,41.01
36278.21,36.01,39.65
34153.05,38.25,42.12
